REM TRY      0   CC  0.00  :  SITCOM CONSENSUS MODEL
REM ENSEMBLE OPERATION: { 1,0,0  0,1,0  0,0,1 } { 0.0000,0.0000,0.0000 }
TITL a in P212121
CELL  0.98000   35.81   52.76   97.40   90.00   90.00   90.00
LATT -1
SYMM X+1/2,-Y+1/2,-Z
SYMM -X,Y+1/2,-Z+1/2
SYMM -X+1/2,-Y,Z+1/2
SFAC SE
UNIT   24
SE01   1 -0.163902 -0.075850 -0.060792   0.9486  0.2
SE02   1  0.101329 -0.300709  0.136144   0.9387  0.2
SE03   1  0.138130 -0.134187  0.185714   0.9031  0.2
SE04   1  0.171413  0.095618  0.123772   0.8709  0.2
SE05   1  0.138186  0.011429  0.111564   0.5000  0.2
SE06   1 -0.319847 -0.199613 -0.145251   0.5000  0.2
HKLF 3
END
