REM TRY      0   CC  0.00  :  SITCOM CONSENSUS MODEL
REM ENSEMBLE OPERATION: { 1,0,0  0,1,0  0,0,1 } { 0.0000,0.0000,0.0000 }
TITL aa in P212121
CELL  0.98000   35.81   52.76   97.40   90.00   90.00   90.00
LATT -1
SYMM X+1/2,-Y+1/2,-Z
SYMM -X,Y+1/2,-Z+1/2
SYMM -X+1/2,-Y,Z+1/2
SFAC SE
UNIT   24
SE01   1 -0.161445 -0.076855 -0.061408   0.9466  0.2
SE02   1  0.100575 -0.303192  0.133279   0.9190  0.2
SE03   1  0.137013 -0.136538  0.185601   0.8840  0.2
SE04   1  0.154353  0.105076  0.122201   0.8458  0.2
SE05   1  0.197967  0.084095  0.120620   0.5000  0.2
SE06   1  0.110711 -0.296880  0.146206   0.5000  0.2
HKLF 3
END
