REM TRY      0   CC  0.00  :  SITCOM CONSENSUS MODEL
REM ENSEMBLE OPERATION: { 1,0,0  0,1,0  0,0,1 } { 0.0000,0.0000,0.0000 }
TITL a in P212121
CELL  0.98000   48.73   57.83  100.86   90.00   90.00   90.00
LATT -1
SYMM X+1/2,-Y+1/2,-Z
SYMM -X,Y+1/2,-Z+1/2
SYMM -X+1/2,-Y,Z+1/2
SFAC SE
UNIT   24
SE01   1  0.177704 -0.193792  0.054560   0.9687  0.2
SE02   1 -0.166078 -0.175538 -0.047927   0.9397  0.2
SE03   1  0.013894  0.026675  0.302542   0.9362  0.2
SE04   1 -0.393529  0.133532 -0.208513   0.9140  0.2
SE05   1  0.000000 -0.025344  0.303821   0.5000  0.2
SE06   1 -0.465625 -0.058271 -0.186859   0.5000  0.2
HKLF 3
END
