REM TRY      0   CC  0.00  :  SITCOM CONSENSUS MODEL
REM ENSEMBLE OPERATION: { 1,0,0  0,1,0  0,0,1 } { 0.0000,0.0000,0.0000 }
TITL aa in P212121
CELL  0.98000   48.73   57.83  100.86   90.00   90.00   90.00
LATT -1
SYMM X+1/2,-Y+1/2,-Z
SYMM -X,Y+1/2,-Z+1/2
SYMM -X+1/2,-Y,Z+1/2
SFAC SE
UNIT   24
SE01   1  0.174646 -0.196316  0.053866   0.9472  0.2
SE02   1  0.013565  0.028768  0.302631   0.9382  0.2
SE03   1 -0.166550 -0.169555 -0.047748   0.9334  0.2
SE04   1 -0.395335  0.136853 -0.208483   0.8953  0.2
SE05   1  0.017896 -0.048154  0.303821   0.5000  0.2
SE06   1 -0.464578 -0.065015 -0.196397   0.5000  0.2
HKLF 3
END
