REM TRY      0   CC  0.00  :  SITCOM CONSENSUS MODEL
REM ENSEMBLE OPERATION: { 1,0,0  0,1,0  0,0,1 } { 0.0000,0.0000,0.0000 }
TITL sitcom in P212121
CELL  0.98000   48.73   57.83  100.86   90.00   90.00   90.00
LATT -1
SYMM X+1/2,-Y+1/2,-Z
SYMM -X,Y+1/2,-Z+1/2
SYMM -X+1/2,-Y,Z+1/2
SFAC SE
UNIT   24
SE01   1 -0.176299  0.194527 -0.055204   0.9687  0.2
SE02   1  0.164324  0.172884  0.046598   0.9397  0.2
SE03   1 -0.017844 -0.028361 -0.303504   0.9362  0.2
SE04   1  0.398752 -0.129546  0.209068   0.9140  0.2
SE05   1 -0.000000  0.025344 -0.303821   0.5000  0.2
SE06   1  0.465625  0.058271  0.186859   0.5000  0.2
HKLF 3
END
