REM TRY      0   CC  0.00  :  SITCOM CONSENSUS MODEL
REM ENSEMBLE OPERATION: { 1,0,0  0,1,0  0,0,1 } { 0.0000,0.0000,0.0000 }
TITL sitcom in P1
CELL  0.98000  114.53   65.83   87.02   90.00   95.83   90.00
LATT -1
SFAC SE
UNIT   38
SE01   1  0.488325  0.170864  0.330669   0.9880  0.2
SE02   1  0.469749  0.263527  0.364214   0.9867  0.2
SE03   1  0.476534  0.098147  0.111147   0.9612  0.2
SE04   1  0.451217  0.424290  0.350584   0.9533  0.2
SE05   1  0.489501  0.316922  0.411298   0.9527  0.2
SE06   1  0.393892  0.416968  0.285596   0.9465  0.2
SE07   1 -0.334245  0.152362  0.217547   0.5000  0.2
SE08   1 -0.346162  0.134225  0.209080   0.5000  0.2
SE09   1 -0.360801  0.294000  0.334019   0.5000  0.2
SE10   1 -0.363517  0.291387  0.345547   0.5000  0.2
SE11   1 -0.203022 -0.440589  0.404436   0.5000  0.2
SE12   1 -0.201989 -0.445466  0.404240   0.5000  0.2
SE13   1 -0.406840 -0.494698  0.271931   0.5000  0.2
SE14   1 -0.392966 -0.481133  0.418090   0.5000  0.2
SE15   1 -0.481776  0.111302  0.146078   0.5000  0.2
SE16   1  0.424261  0.032295  0.385850   0.5000  0.2
SE17   1  0.362172 -0.034027  0.286624   0.5000  0.2
SE18   1  0.417376 -0.138949  0.356937   0.5000  0.2
SE19   1  0.426764 -0.150722  0.355147   0.5000  0.2
SE20   1 -0.361609  0.306775  0.396627   0.5000  0.2
SE21   1 -0.273534  0.493909  0.405707   0.5000  0.2
SE22   1  0.481706  0.112010 -0.145399   0.5000  0.2
SE23   1  0.138153  0.466742 -0.285587   0.5000  0.2
SE24   1  0.076456  0.538001 -0.383912   0.5000  0.2
SE25   1  0.407620  0.505903 -0.271771   0.5000  0.2
SE26   1  0.392325  0.518861 -0.417573   0.5000  0.2
SE27   1  0.362950  0.293584 -0.337626   0.5000  0.2
SE28   1  0.364467  0.309291 -0.397277   0.5000  0.2
SE29   1  0.274036  0.493842 -0.403503   0.5000  0.2
SE30   1  0.332357  0.154969 -0.217792   0.5000  0.2
SE31   1  0.081732  0.357673 -0.355715   0.5000  0.2
SE32   1  0.500482  0.170494 -0.330094   0.5000  0.2
SE33   1  0.296775  0.057354 -0.596502   0.5000  0.2
SE34   1  0.476967  0.313058 -0.682213   0.5000  0.2
SE35   1  0.482267  0.218679 -0.652688   0.5000  0.2
SE36   1 -0.505280  0.180976 -0.627656   0.5000  0.2
SE37   1  0.202330  0.538001 -0.402094   0.5000  0.2
SE38   1  0.483364  0.349516 -0.652607   0.5000  0.2
HKLF 3
END
