REM TRY      0   CC  0.00  :  SITCOM CONSENSUS MODEL
REM ENSEMBLE OPERATION: { 1,0,0  0,1,0  0,0,1 } { 0.0000,0.0000,0.0000 }
TITL aa in C121
CELL  0.98000   96.54   44.64   42.24   90.00   97.67   90.00
LATT -7
SYMM -X,Y,-Z
SFAC SE
UNIT   24
SE01   1  0.117714 -0.139793 -0.060550   0.9831  0.2
SE02   1  0.190283 -0.229352  0.115704   0.9716  0.2
SE03   1  0.202948 -0.242793 -0.053074   0.9714  0.2
SE04   1  0.175746 -0.328834 -0.009602   0.9624  0.2
SE05   1  0.183975 -0.196423 -0.006354   0.5000  0.2
SE06   1  0.188596 -0.144968 -0.063799   0.5000  0.2
HKLF 3
END
