REM TRY      0   CC  0.00  :  SITCOM CONSENSUS MODEL
REM ENSEMBLE OPERATION: { 1,0,0  0,1,0  0,0,1 } { 0.0000,0.0000,0.0000 }
TITL sitcom in P1
CELL  0.98000   47.76  188.13   47.77   90.00  102.66   90.00
LATT -1
SFAC SE
UNIT   27
SE01   1 -0.149837 -0.388666  0.441329   0.9820  0.2
SE02   1  0.459155 -0.338727  0.104223   0.9496  0.2
SE03   1  0.348900  0.489752 -0.405586   0.9441  0.2
SE04   1 -0.056778 -0.385594  0.391427   0.9311  0.2
SE05   1  0.036950 -0.482714 -0.445116   0.9178  0.2
SE06   1  0.431032 -0.405139  0.326078   0.8882  0.2
SE07   1  0.301793 -0.388220  0.526222   0.8486  0.2
SE08   1 -0.087365 -0.044358  0.144835   0.5000  0.2
SE09   1  0.386067 -0.219255  0.045804   0.5000  0.2
SE10   1  0.159249 -0.150472  0.057282   0.5000  0.2
SE11   1 -0.027598 -0.167445  0.192442   0.5000  0.2
SE12   1  0.058204 -0.167487 -0.351587   0.5000  0.2
SE13   1 -0.053969 -0.074184  0.462708   0.5000  0.2
SE14   1 -0.214865 -0.079430 -0.104674   0.5000  0.2
SE15   1  0.107358 -0.170490 -0.441500   0.5000  0.2
SE16   1 -0.389995 -0.472880 -0.292579   0.5000  0.2
SE17   1 -0.061746  0.332758  0.349684   0.5000  0.2
SE18   1 -0.109886  0.328309  0.447471   0.5000  0.2
SE19   1 -0.393948  0.280692 -0.044307   0.5000  0.2
SE20   1 -0.168929  0.349794 -0.065804   0.5000  0.2
SE21   1  0.051749  0.428969 -0.474050   0.5000  0.2
SE22   1  0.035046  0.331892 -0.187018   0.5000  0.2
SE23   1  0.202189  0.421076  0.103415   0.5000  0.2
SE24   1  0.341056  0.417722 -0.184916   0.5000  0.2
SE25   1 -0.080482  0.349449  0.418466   0.5000  0.2
SE26   1 -0.159931  0.336203  0.335804   0.5000  0.2
SE27   1  0.133384  0.344787  0.500913   0.5000  0.2
HKLF 3
END
