REM TRY      0   CC  0.00  :  SITCOM CONSENSUS MODEL
REM ENSEMBLE OPERATION: { 1,0,0  0,1,0  0,0,1 } { 0.0000,0.0000,0.0000 }
TITL a in P1211
CELL  0.98000   42.01   88.12   79.67   90.00   95.45   90.00
LATT -1
SYMM -X,Y+1/2,-Z
SFAC SE
UNIT   84
SE01   1 -0.249578  0.042669 -0.079635   0.9921  0.2
SE02   1 -0.243630 -0.059714 -0.359451   0.9891  0.2
SE03   1  0.248487 -0.234782  0.178248   0.9732  0.2
SE04   1 -0.328283  0.195359  0.211689   0.9711  0.2
SE05   1  0.291799 -0.126169 -0.188917   0.9685  0.2
SE06   1 -0.420904  0.057229  0.340676   0.9678  0.2
SE07   1 -0.208246  0.094428  0.199105   0.9659  0.2
SE08   1  0.373915  0.024262 -0.009997   0.9653  0.2
SE09   1  0.204251 -0.185259  0.141330   0.9564  0.2
SE10   1 -0.250337  0.033522  0.300833   0.9530  0.2
SE11   1  0.357738 -0.247742  0.156788   0.9521  0.2
SE12   1  0.373145  0.181798  0.482740   0.9504  0.2
SE13   1  0.010586  0.094905 -0.112216   0.9486  0.2
SE14   1 -0.473321  0.157830 -0.415899   0.9474  0.2
SE15   1 -0.338907  0.075011  0.291603   0.9381  0.2
SE16   1 -0.518347 -0.221754 -0.166486   0.9374  0.2
SE17   1  0.420716 -0.151123  0.492030   0.9347  0.2
SE18   1 -0.342577  0.182864 -0.255389   0.9340  0.2
SE19   1  0.089022  0.249864  0.438470   0.9168  0.2
SE20   1  0.364653 -0.166432  0.515659   0.9113  0.2
SE21   1 -0.248786 -0.093793 -0.159047   0.9062  0.2
SE22   1 -0.093357  0.183159 -0.272209   0.8998  0.2
SE23   1 -0.065844  0.168021 -0.320337   0.8731  0.2
SE24   1  0.134252 -0.248763 -0.379562   0.8712  0.2
SE25   1 -0.246287  0.096664  0.030198   0.8702  0.2
SE26   1 -0.019186  0.092227 -0.109404   0.7485  0.2
SE27   1 -0.244821  0.048207 -0.031684   0.5000  0.2
SE28   1  0.286174  0.022299 -0.009997   0.5000  0.2
SE29   1  0.140990 -0.166636  0.120500   0.5000  0.2
SE30   1 -0.036634  0.145835 -0.351909   0.5000  0.2
SE31   1 -0.343892  0.062755  0.149086   0.5000  0.2
SE32   1  0.401844 -0.214866 -0.160510   0.5000  0.2
SE33   1 -0.427572  0.070744  0.287795   0.5000  0.2
SE34   1 -0.314736  0.016716  0.323907   0.5000  0.2
SE35   1  0.118083 -0.186019  0.146361   0.5000  0.2
SE36   1  0.132070  0.343570  0.043010   0.5000  0.2
SE37   1  0.360379  0.055145 -0.029292   0.5000  0.2
SE38   1  0.792076  0.091028  0.033689   0.5000  0.2
SE39   1  0.852749  0.258005  0.386003   0.5000  0.2
SE40   1  0.645883  0.205372  0.229074   0.5000  0.2
SE41   1  0.563348  0.172712 -0.424031   0.5000  0.2
SE42   1  0.938676  0.191936 -0.261542   0.5000  0.2
HKLF 3
END
