REM TRY      0   CC  0.00  :  SITCOM CONSENSUS MODEL
REM ENSEMBLE OPERATION: { 1,0,0  0,1,0  0,0,1 } { 0.0000,0.0000,0.0000 }
TITL aa in P1211
CELL  0.98000   42.01   88.12   79.67   90.00   95.45   90.00
LATT -1
SYMM -X,Y+1/2,-Z
SFAC SE
UNIT   84
SE01   1  0.292513 -0.124796 -0.187732   0.9960  0.2
SE02   1  0.416401 -0.151884  0.491463   0.9951  0.2
SE03   1  0.250171 -0.234090  0.179005   0.9918  0.2
SE04   1 -0.340106  0.075374  0.294465   0.9910  0.2
SE05   1  0.203946 -0.185259  0.143070   0.9888  0.2
SE06   1 -0.249459  0.043361 -0.079370   0.9861  0.2
SE07   1 -0.209487  0.094995  0.199748   0.9855  0.2
SE08   1 -0.251167 -0.096380 -0.159451   0.9843  0.2
SE09   1 -0.420470  0.058749  0.340046   0.9829  0.2
SE10   1  0.355322 -0.245903  0.156460   0.9827  0.2
SE11   1  0.375626  0.183931  0.483168   0.9806  0.2
SE12   1 -0.253223  0.034260  0.299874   0.9791  0.2
SE13   1  0.375702  0.024285 -0.009482   0.9769  0.2
SE14   1 -0.343974  0.186212 -0.254821   0.9765  0.2
SE15   1  0.364937 -0.167658  0.512343   0.9714  0.2
SE16   1 -0.329060  0.196527  0.211210   0.9691  0.2
SE17   1 -0.242175 -0.059169 -0.359035   0.9659  0.2
SE18   1 -0.262655  0.100057  0.030904   0.9649  0.2
SE19   1 -0.472268  0.159396 -0.415470   0.9459  0.2
SE20   1 -0.087263 -0.249637 -0.436238   0.9436  0.2
SE21   1 -0.094417  0.184158 -0.274920   0.9151  0.2
SE22   1 -0.518045 -0.216943 -0.164280   0.9139  0.2
SE23   1  0.015978  0.098774 -0.107652   0.9125  0.2
SE24   1 -0.061950  0.169212 -0.324094   0.9093  0.2
SE25   1  0.132846 -0.246255 -0.379701   0.8784  0.2
SE26   1  0.045429  0.104812 -0.130486   0.7766  0.2
SE27   1 -0.120449  0.062880  0.006204   0.5000  0.2
SE28   1  0.453191 -0.140502 -0.111865   0.5000  0.2
SE29   1  0.138564 -0.207705  0.102936   0.5000  0.2
SE30   1 -0.022036  0.145778 -0.348038   0.5000  0.2
SE31   1 -0.351665  0.057569  0.164608   0.5000  0.2
SE32   1 -0.513446 -0.225862 -0.164255   0.5000  0.2
SE33   1  0.493058  0.174989  0.290393   0.5000  0.2
SE34   1 -0.287476  0.032410  0.391729   0.5000  0.2
SE35   1 -0.030885 -0.158965  0.238720   0.5000  0.2
SE36   1  0.132070  0.344740  0.043010   0.5000  0.2
SE37   1  0.360379  0.056315 -0.029292   0.5000  0.2
SE38   1  0.792076  0.092198  0.033689   0.5000  0.2
SE39   1  0.852749  0.259175  0.386003   0.5000  0.2
SE40   1  0.645883  0.206542  0.229074   0.5000  0.2
SE41   1  0.563348  0.173882 -0.424031   0.5000  0.2
SE42   1  0.938676  0.193106 -0.261542   0.5000  0.2
HKLF 3
END
