REM TRY      0   CC  0.00  :  SITCOM CONSENSUS MODEL
REM ENSEMBLE OPERATION: { 1,0,0  0,1,0  0,0,1 } { 0.0000,0.0000,0.0000 }
TITL sitcom in P1
CELL  0.98000   42.01   88.12   79.67   90.00   95.45   90.00
LATT -1
SFAC SE
UNIT   53
SE01   1  0.295806  0.193702 -0.142994   0.9820  0.2
SE02   1  0.250123  0.144734 -0.179093   0.9694  0.2
SE03   1  0.207474  0.253926  0.187684   0.9690  0.2
SE04   1 -0.256302  0.320415  0.359564   0.9610  0.2
SE05   1  0.145368  0.133216 -0.156460   0.9422  0.2
SE06   1  0.083484  0.226782 -0.491312   0.9391  0.2
SE07   1 -0.124661  0.063198  0.483294   0.9359  0.2
SE08   1  0.026164  0.036586 -0.413869   0.9306  0.2
SE09   1  0.510323 -0.025023 -0.109972   0.9261  0.2
SE10   1 -0.415124  0.130629  0.434877   0.9216  0.2
SE11   1  0.155744  0.065309 -0.255591   0.9201  0.2
SE12   1 -0.249002  0.281673  0.159591   0.9124  0.2
SE13   1  0.136736  0.211382  0.488350   0.9009  0.2
SE14   1  0.397460  0.063130 -0.275084   0.8988  0.2
SE15   1  0.434637  0.045143 -0.327448   0.8871  0.2
SE16   1 -0.367930  0.223332  0.043010   0.5000  0.2
SE17   1 -0.245787  0.413266 -0.300301   0.5000  0.2
SE18   1 -0.080070  0.437892 -0.339981   0.5000  0.2
SE19   1 -0.250604  0.422447  0.079336   0.5000  0.2
SE20   1  0.123496  0.403552  0.009812   0.5000  0.2
SE21   1  0.139621  0.434907  0.029292   0.5000  0.2
SE22   1 -0.292076  0.470790 -0.033689   0.5000  0.2
SE23   1 -0.239434  0.478904 -0.030057   0.5000  0.2
SE24   1 -0.291041  0.473581 -0.200276   0.5000  0.2
SE25   1 -0.160347  0.454131 -0.294312   0.5000  0.2
SE26   1 -0.373289 -0.366466 -0.373697   0.5000  0.2
SE27   1 -0.352749 -0.362233 -0.386003   0.5000  0.2
SE28   1 -0.171495 -0.423808 -0.211624   0.5000  0.2
SE29   1 -0.145883 -0.414866 -0.229074   0.5000  0.2
SE30   1 -0.016371 -0.342192 -0.163685   0.5000  0.2
SE31   1  0.063348  0.052474 -0.424031   0.5000  0.2
SE32   1  0.548131 -0.014094 -0.105042   0.5000  0.2
SE33   1  0.438676  0.071698 -0.261542   0.5000  0.2
SE34   1 -0.827459  0.074557  0.210596   0.5000  0.2
SE35   1 -0.920079 -0.063573  0.339584   0.5000  0.2
SE36   1 -0.749512 -0.087279  0.299740   0.5000  0.2
SE37   1 -0.707421 -0.026374  0.198012   0.5000  0.2
SE38   1 -0.748753 -0.078132 -0.080728   0.5000  0.2
SE39   1 -0.838082 -0.045790  0.290510   0.5000  0.2
SE40   1 -0.125260 -0.096539 -0.011090   0.5000  0.2
SE41   1  0.019172  0.157444  0.165393   0.5000  0.2
SE42   1 -0.745462 -0.024138  0.029105   0.5000  0.2
SE43   1 -0.633427  0.130435  0.378469   0.5000  0.2
SE44   1 -0.743996 -0.072595 -0.032777   0.5000  0.2
SE45   1 -0.213001 -0.098502 -0.011090   0.5000  0.2
SE46   1 -0.640165  0.212562 -0.121593   0.5000  0.2
SE47   1 -0.535810  0.025034 -0.353002   0.5000  0.2
SE48   1 -0.843067 -0.058046  0.147993   0.5000  0.2
SE49   1 -0.901019  0.164332  0.159417   0.5000  0.2
SE50   1 -0.518362 -0.028575 -0.110497   0.5000  0.2
SE51   1 -0.926747 -0.050057  0.286702   0.5000  0.2
SE52   1 -0.813911 -0.104086  0.322814   0.5000  0.2
SE53   1 -0.617258  0.193179 -0.147454   0.5000  0.2
HKLF 3
END
