REM TRY      0   CC  0.00  :  SITCOM CONSENSUS MODEL
REM ENSEMBLE OPERATION: { 1,0,0  0,1,0  0,0,1 } { 0.0000,0.0000,0.0000 }
TITL a in P41212
CELL  0.98000   57.62   57.62  150.81   90.00   90.00   90.00
LATT -1
SYMM -Y+1/2,X+1/2,Z+1/4
SYMM Y+1/2,-X+1/2,Z+3/4
SYMM X+1/2,-Y+1/2,-Z+3/4
SYMM -X+1/2,Y+1/2,-Z+1/4
SYMM -X,-Y,Z+1/2
SYMM Y,X,-Z
SYMM -Y,-X,-Z+1/2
SFAC SE
UNIT   152
SE01   1  0.289439 -0.087651 -0.060328   0.9749  0.2
SE02   1  0.451931 -0.127085 -0.003315   0.9663  0.2
SE03   1 -0.015847 -0.150482  0.074512   0.9476  0.2
SE04   1 -0.012193 -0.322546  0.159222   0.9433  0.2
SE05   1  0.032318 -0.136232  0.011989   0.9261  0.2
SE06   1  0.464584 -0.110596 -0.067914   0.9246  0.2
SE07   1 -0.088458 -0.012575  0.173466   0.9103  0.2
SE08   1 -0.110188  0.017122  0.140676   0.8966  0.2
SE09   1 -0.391148  0.447922 -0.006200   0.8865  0.2
SE10   1 -0.000000 -0.149527  0.074578   0.5000  0.2
SE11   1 -0.056825 -0.135017  0.072244   0.5000  0.2
SE12   1  0.254586 -0.046845 -0.059519   0.5000  0.2
SE13   1  0.313894 -0.063178 -0.050097   0.5000  0.2
SE14   1  0.217999 -0.102664 -0.054785   0.5000  0.2
SE15   1  0.008557 -0.113807  0.075553   0.5000  0.2
SE16   1  0.368611  0.552538  0.607521   0.5000  0.2
SE17   1  0.465504  0.254309  0.534925   0.5000  0.2
SE18   1  0.447661  0.021748  0.613880   0.5000  0.2
SE19   1  0.110579  0.622494  0.575898   0.5000  0.2
HKLF 3
END
