REM TRY      0   CC  0.00  :  SITCOM CONSENSUS MODEL
REM ENSEMBLE OPERATION: { 1,0,0  0,1,0  0,0,1 } { 0.0000,0.0000,0.0000 }
TITL aa in P41212
CELL  0.98000   57.62   57.62  150.81   90.00   90.00   90.00
LATT -1
SYMM -Y+1/2,X+1/2,Z+1/4
SYMM Y+1/2,-X+1/2,Z+3/4
SYMM X+1/2,-Y+1/2,-Z+3/4
SYMM -X+1/2,Y+1/2,-Z+1/4
SYMM -X,-Y,Z+1/2
SYMM Y,X,-Z
SYMM -Y,-X,-Z+1/2
SFAC SE
UNIT   152
SE01   1  0.288449 -0.085603 -0.060116   0.9801  0.2
SE02   1 -0.017114 -0.150273  0.074684   0.9663  0.2
SE03   1 -0.089603 -0.015855  0.173651   0.9422  0.2
SE04   1  0.451011 -0.125124 -0.003700   0.9368  0.2
SE05   1 -0.394706  0.446238 -0.005371   0.9316  0.2
SE06   1 -0.012141 -0.323258  0.158619   0.9283  0.2
SE07   1 -0.113955  0.017955  0.141206   0.9243  0.2
SE08   1  0.029228 -0.134114  0.010895   0.9082  0.2
SE09   1  0.466354 -0.111360 -0.068644   0.9011  0.2
SE10   1 -0.000000 -0.149527  0.074578   0.5000  0.2
SE11   1 -0.052469 -0.131927  0.072330   0.5000  0.2
SE12   1  0.271856 -0.049432 -0.056217   0.5000  0.2
SE13   1  0.327068 -0.072915 -0.057079   0.5000  0.2
SE14   1  0.218901 -0.118806 -0.050760   0.5000  0.2
SE15   1  0.002899 -0.117799  0.071919   0.5000  0.2
SE16   1  0.368611  0.552538  0.607521   0.5000  0.2
SE17   1  0.465504  0.254309  0.534925   0.5000  0.2
SE18   1  0.447661  0.021748  0.613880   0.5000  0.2
SE19   1  0.110579  0.622494  0.575898   0.5000  0.2
HKLF 3
END
