REM TRY      0   CC  0.00  :  SITCOM CONSENSUS MODEL
REM ENSEMBLE OPERATION: { 1,0,0  0,1,0  0,0,1 } { 0.0000,0.0000,0.0000 }
TITL sitcom in P1
CELL  0.98000   57.62   57.62  150.81   90.00   90.00   90.00
LATT -1
SFAC SE
UNIT   26
SE01   1  0.014389  0.117487  0.390855   0.8955  0.2
SE02   1 -0.052538  0.131389  0.392479   0.8184  0.2
SE03   1  0.288814  0.086627  0.310043   0.5000  0.2
SE04   1 -0.018589  0.150464  0.174832   0.5000  0.2
SE05   1 -0.128560 -0.451323  0.247116   0.5000  0.2
SE06   1  0.179693  0.485273  0.340353   0.5000  0.2
SE07   1  0.444138  0.398212  0.245332   0.5000  0.2
SE08   1 -0.016957  0.092111  0.424566   0.5000  0.2
SE09   1 -0.465504  0.254309  0.215075   0.5000  0.2
SE10   1 -0.021748  0.447661  0.363880   0.5000  0.2
SE11   1  0.033342  0.139183  0.239477   0.5000  0.2
SE12   1  0.377506  0.110579  0.325898   0.5000  0.2
SE13   1 -0.108982 -0.464688  0.183923   0.5000  0.2
SE14   1 -0.065339  0.557089  0.376654   0.5000  0.2
SE15   1 -0.465495  0.445104  0.407104   0.5000  0.2
SE16   1 -0.104773  0.719581  0.319642   0.5000  0.2
SE17   1  0.022312  0.118123  0.390904   0.5000  0.2
SE18   1 -0.389230  0.755075  0.392860   0.5000  0.2
SE19   1  0.470233 -0.123498  0.322526   0.5000  0.2
SE20   1 -0.367500 -0.215228  0.425650   0.5000  0.2
SE21   1 -0.088284  0.732234  0.384240   0.5000  0.2
SE22   1  0.054630  0.131418  0.328315   0.5000  0.2
SE23   1 -0.024534  0.522237  0.375845   0.5000  0.2
SE24   1 -0.040866  0.581544  0.366423   0.5000  0.2
SE25   1 -0.080352  0.485649  0.371111   0.5000  0.2
SE26   1  0.030869  0.153843  0.391879   0.5000  0.2
HKLF 3
END
