REM TRY      0   CC  0.00  :  SITCOM CONSENSUS MODEL
REM ENSEMBLE OPERATION: { 1,0,0  0,1,0  0,0,1 } { 0.0000,0.0000,0.0000 }
TITL a in P1211
CELL  0.98000   87.81   58.67   95.73   90.00  114.31   90.00
LATT -1
SYMM -X,Y+1/2,-Z
SFAC SE
UNIT   20
SE01   1 -0.487207 -0.032782 -0.143395   0.9551  0.2
SE02   1  0.089732 -0.154487 -0.395705   0.9448  0.2
SE03   1  0.337376  0.128164 -0.165904   0.9385  0.2
SE04   1 -0.485349  0.242250 -0.395095   0.9304  0.2
SE05   1  0.388308  0.134504  0.310780   0.9227  0.2
SE06   1  0.339821  0.184337  0.279602   0.9183  0.2
SE07   1 -0.078744 -0.038202  0.310227   0.8928  0.2
SE08   1 -0.064521 -0.094870  0.272493   0.8525  0.2
SE09   1  0.362588  0.127311 -0.117086   0.5000  0.2
SE10   1  0.318965  0.129817 -0.208728   0.5000  0.2
HKLF 3
END
