REM TRY      0   CC  0.00  :  SITCOM CONSENSUS MODEL
REM ENSEMBLE OPERATION: { 1,0,0  0,1,0  0,0,1 } { 0.0000,0.0000,0.0000 }
TITL aa in P1211
CELL  0.98000   87.81   58.67   95.73   90.00  114.31   90.00
LATT -1
SYMM -X,Y+1/2,-Z
SFAC SE
UNIT   20
SE01   1  0.087749 -0.154640 -0.395075   0.9965  0.2
SE02   1 -0.483869  0.243886 -0.392229   0.9932  0.2
SE03   1  0.335297  0.127993 -0.165056   0.9921  0.2
SE04   1 -0.485804 -0.032782 -0.142959   0.9860  0.2
SE05   1  0.390343  0.136702  0.309657   0.9507  0.2
SE06   1 -0.075941 -0.041236  0.309597   0.9505  0.2
SE07   1  0.341149  0.184406  0.277539   0.8995  0.2
SE08   1 -0.061821 -0.097546  0.271152   0.8854  0.2
SE09   1  0.358758  0.127397 -0.113085   0.5000  0.2
SE10   1  0.310381  0.128931 -0.215066   0.5000  0.2
HKLF 3
END
