REM TRY      0   CC  0.00  :  SITCOM CONSENSUS MODEL
REM ENSEMBLE OPERATION: { 1,0,0  0,1,0  0,0,1 } { 0.0000,0.0000,0.0000 }
TITL sitcom in P1
CELL  0.98000   87.81   58.67   95.73   90.00  114.31   90.00
LATT -1
SFAC SE
UNIT   14
SE01   1 -0.014695  0.496310 -0.357283   1.0000  0.2
SE02   1 -0.163607  0.215407 -0.222623   0.9462  0.2
SE03   1  0.016209  0.272757  0.107598   0.9136  0.2
SE04   1 -0.108671  0.162863 -0.189966   0.8986  0.2
SE05   1 -0.575568 -0.014231 -0.191686   0.5000  0.2
SE06   1 -0.412221 -0.125795  0.104835   0.5000  0.2
SE07   1 -0.555443 -0.067371 -0.227357   0.5000  0.2
SE08   1  0.164613 -0.342821 -0.335000   0.5000  0.2
SE09   1  0.835474  0.157256  0.333418   0.5000  0.2
SE10   1  0.408367  0.374606  0.895027   0.5000  0.2
SE11   1  0.576843  0.490890  0.189095   0.5000  0.2
SE12   1  0.562620  0.434222  0.226829   0.5000  0.2
SE13   1  0.860687  0.156404  0.382237   0.5000  0.2
SE14   1  0.817064  0.158909  0.290595   0.5000  0.2
HKLF 3
END
