REM TRY      0   CC  0.00  :  SITCOM CONSENSUS MODEL
REM ENSEMBLE OPERATION: { 1,0,0  0,1,0  0,0,1 } { 0.0000,0.0000,0.0000 }
TITL a in P1211
CELL  0.98000   66.47  215.69   78.63   90.00   91.90   90.00
LATT -1
SYMM -X,Y+1/2,-Z
SFAC SE
UNIT   114
SE01   1 -0.222919  0.094246  0.381540   0.9681  0.2
SE02   1  0.342345  0.225462  0.176047   0.9391  0.2
SE03   1  0.226199 -0.111911 -0.220826   0.9192  0.2
SE04   1  0.150981  0.148927  0.111609   0.9162  0.2
SE05   1 -0.160159 -0.216422 -0.177574   0.9116  0.2
SE06   1  0.378842 -0.055232  0.271480   0.9079  0.2
SE07   1  0.288184 -0.128968  0.212183   0.9073  0.2
SE08   1 -0.044546  0.239863  0.188429   0.9055  0.2
SE09   1 -0.230521 -0.201484 -0.227685   0.8946  0.2
SE10   1 -0.084265 -0.082744  0.176961   0.8919  0.2
SE11   1 -0.453106 -0.122523 -0.246148   0.8907  0.2
SE12   1  0.018765  0.011855  0.344536   0.8881  0.2
SE13   1 -0.498132 -0.086355 -0.093349   0.8849  0.2
SE14   1 -0.242466 -0.233975  0.396807   0.8847  0.2
SE15   1 -0.216896  0.063104  0.035668   0.8808  0.2
SE16   1  0.338462  0.229343  0.326378   0.8767  0.2
SE17   1  0.166195  0.012578  0.326111   0.8724  0.2
SE18   1  0.000009  0.147406  0.080777   0.8686  0.2
SE19   1  0.269874  0.212968 -0.414189   0.8681  0.2
SE20   1  0.382670 -0.057926  0.121646   0.8670  0.2
SE21   1 -0.000013 -0.078256  0.236335   0.8660  0.2
SE22   1  0.215238 -0.116723  0.268808   0.8626  0.2
SE23   1  0.311888 -0.044661 -0.142072   0.8581  0.2
SE24   1  0.204738  0.225968  0.502464   0.8567  0.2
SE25   1  0.237742 -0.061333 -0.047756   0.8541  0.2
SE26   1 -0.426335 -0.054801 -0.225674   0.8501  0.2
SE27   1 -0.169185 -0.219885  0.343732   0.8489  0.2
SE28   1 -0.458817 -0.238388  0.460584   0.8445  0.2
SE29   1 -0.488621  0.232459 -0.311920   0.8420  0.2
SE30   1  0.182981 -0.076327  0.283773   0.8416  0.2
SE31   1  0.044572 -0.188405 -0.091873   0.8410  0.2
SE32   1  0.296447 -0.099467 -0.154441   0.8388  0.2
SE33   1  0.251092 -0.055751  0.430324   0.8189  0.2
SE34   1  0.067818 -0.241880  0.109901   0.8135  0.2
SE35   1  0.153354  0.246303  0.427184   0.8007  0.2
SE36   1  0.218084  0.226385  0.015321   0.7991  0.2
SE37   1 -0.212212  0.230275 -0.435617   0.7978  0.2
SE38   1  0.495866  0.131142  0.292950   0.7960  0.2
SE39   1  0.147271  0.240261  0.166987   0.7882  0.2
SE40   1 -0.485381 -0.210770  0.292718   0.7868  0.2
SE41   1 -0.024986  0.121795 -0.367743   0.7837  0.2
SE42   1  0.220417 -0.076258  0.000000   0.7832  0.2
SE43   1 -0.155679 -0.078910 -0.155802   0.7800  0.2
SE44   1  0.177837 -0.096861 -0.291919   0.5000  0.2
SE45   1  0.106086 -0.071760  0.223253   0.5000  0.2
SE46   1  0.113167 -0.106695 -0.207274   0.5000  0.2
SE47   1  0.403360 -0.022607  0.246769   0.5000  0.2
SE48   1  0.270405 -0.061802  0.255638   0.5000  0.2
SE49   1  0.329913  0.220729 -0.335003   0.5000  0.2
SE50   1  0.370363 -0.115685  0.167315   0.5000  0.2
SE51   1  0.567281 -0.007706  0.756557   0.5000  0.2
SE52   1  1.005262  0.032893  0.788153   0.5000  0.2
SE53   1  0.030367 -0.147731  0.337686   0.5000  0.2
SE54   1  0.964843 -0.098531  0.540201   0.5000  0.2
SE55   1  0.494763  0.038174  0.169706   0.5000  0.2
SE56   1  0.459521 -0.316585  0.298070   0.5000  0.2
SE57   1  0.124824 -0.258687  0.751225   0.5000  0.2
HKLF 3
END
