REM TRY      0   CC  0.00  :  SITCOM CONSENSUS MODEL
REM ENSEMBLE OPERATION: { 1,0,0  0,1,0  0,0,1 } { 0.0000,0.0000,0.0000 }
TITL aa in P1211
CELL  0.98000   66.47  215.69   78.63   90.00   91.90   90.00
LATT -1
SYMM -X,Y+1/2,-Z
SFAC SE
UNIT   114
SE01   1 -0.164547 -0.215304 -0.175538   0.9812  0.2
SE02   1  0.286669 -0.128504  0.216140   0.9763  0.2
SE03   1  0.011587  0.013436  0.344893   0.9738  0.2
SE04   1  0.382796 -0.054347  0.274471   0.9706  0.2
SE05   1  0.379220 -0.057207  0.114622   0.9680  0.2
SE06   1  0.222504 -0.116723  0.264571   0.9676  0.2
SE07   1  0.338815  0.230298  0.332702   0.9625  0.2
SE08   1  0.152116  0.150605  0.109853   0.9624  0.2
SE09   1  0.170959  0.016705  0.328656   0.9549  0.2
SE10   1 -0.005581 -0.079879  0.241297   0.9542  0.2
SE11   1 -0.005375  0.150183  0.083144   0.9533  0.2
SE12   1 -0.225830 -0.201613 -0.225852   0.9519  0.2
SE13   1  0.228445 -0.110181 -0.217645   0.9513  0.2
SE14   1  0.294627 -0.094882 -0.158653   0.9509  0.2
SE15   1 -0.244069 -0.235203  0.399301   0.9505  0.2
SE16   1 -0.224211  0.095920  0.382354   0.9432  0.2
SE17   1  0.178037 -0.072711  0.286610   0.9384  0.2
SE18   1 -0.173439 -0.221322  0.341925   0.9379  0.2
SE19   1  0.196543  0.227618  0.496458   0.9371  0.2
SE20   1  0.134633  0.237916  0.151272   0.9362  0.2
SE21   1  0.238132 -0.058088 -0.052375   0.9315  0.2
SE22   1 -0.458539 -0.239626  0.453076   0.9303  0.2
SE23   1  0.156988  0.241727  0.419714   0.9303  0.2
SE24   1  0.307013 -0.043850 -0.147060   0.9275  0.2
SE25   1  0.339810  0.227173  0.170881   0.9257  0.2
SE26   1 -0.434012 -0.054472 -0.232685   0.9226  0.2
SE27   1 -0.485961 -0.203143  0.299424   0.9212  0.2
SE28   1  0.271133  0.214261 -0.409723   0.9179  0.2
SE29   1 -0.475947  0.231842 -0.310635   0.9158  0.2
SE30   1 -0.074341 -0.080848  0.175268   0.9030  0.2
SE31   1 -0.456119 -0.121656 -0.247001   0.9006  0.2
SE32   1 -0.494020 -0.085252 -0.092840   0.9001  0.2
SE33   1 -0.044064  0.240108  0.183835   0.8887  0.2
SE34   1 -0.216003  0.063656  0.033504   0.8883  0.2
SE35   1  0.246331 -0.054903  0.422078   0.8882  0.2
SE36   1 -0.012816  0.129389 -0.365873   0.8808  0.2
SE37   1 -0.162546 -0.081450 -0.133330   0.8735  0.2
SE38   1  0.210483 -0.074973  0.018693   0.8708  0.2
SE39   1  0.204930  0.225031  0.016759   0.8656  0.2
SE40   1 -0.207630  0.232783 -0.445759   0.8575  0.2
SE41   1  0.074914 -0.239617  0.122028   0.8374  0.2
SE42   1  0.044552 -0.186916 -0.093922   0.8318  0.2
SE43   1  0.499151  0.127855  0.292696   0.7649  0.2
SE44   1  0.179786 -0.094098 -0.284832   0.5000  0.2
SE45   1  0.100774 -0.087468  0.224373   0.5000  0.2
SE46   1  0.124022 -0.103973 -0.210532   0.5000  0.2
SE47   1  0.412507 -0.015624  0.235635   0.5000  0.2
SE48   1  0.203050 -0.071635  0.243460   0.5000  0.2
SE49   1  0.311465  0.217275 -0.347702   0.5000  0.2
SE50   1  0.388704 -0.106027  0.159273   0.5000  0.2
SE51   1  0.567281 -0.006737  0.756557   0.5000  0.2
SE52   1  1.005262  0.033863  0.788153   0.5000  0.2
SE53   1  0.030367 -0.146762  0.337686   0.5000  0.2
SE54   1  0.964843 -0.097562  0.540201   0.5000  0.2
SE55   1  0.494763  0.039143  0.169706   0.5000  0.2
SE56   1  0.459521 -0.315616  0.298070   0.5000  0.2
SE57   1  0.124824 -0.257718  0.751225   0.5000  0.2
HKLF 3
END
