REM TRY      0   CC  0.00  :  SITCOM CONSENSUS MODEL
REM ENSEMBLE OPERATION: { 1,0,0  0,1,0  0,0,1 } { 0.0000,0.0000,0.0000 }
TITL sitcom in P1
CELL  0.98000   66.47  215.69   78.63   90.00   91.90   90.00
LATT -1
SFAC SE
UNIT   60
SE01   1 -0.276106 -0.160990  0.119537   0.9501  0.2
SE02   1  0.157601 -0.292216  0.326785   0.9264  0.2
SE03   1  0.335162 -0.350670  0.324342   0.9114  0.2
SE04   1  0.728809  0.544068  0.280505   0.9095  0.2
SE05   1  0.348263 -0.216695  0.391364   0.9077  0.2
SE06   1 -0.213752 -0.436882 -0.283862   0.9018  0.2
SE07   1  0.882409  0.488344  0.775347   0.8962  0.2
SE08   1 -0.450858 -0.307335  0.314060   0.8950  0.2
SE09   1  0.421516  0.516426  0.673599   0.8916  0.2
SE10   1  0.275926 -0.364403  0.272883   0.8886  0.2
SE11   1  0.041476 -0.444666  0.257652   0.8885  0.2
SE12   1  0.256833 -0.330275 -0.102651   0.8857  0.2
SE13   1  0.160468 -0.295609  0.166275   0.8852  0.2
SE14   1  1.005612  0.517660  0.408898   0.8779  0.2
SE15   1  0.879836  0.491330  0.613475   0.8752  0.2
SE16   1  0.229204 -0.281052 -0.093184   0.8738  0.2
SE17   1  0.805854  0.478905  0.350250   0.8662  0.2
SE18   1  0.507752 -0.215749  0.417233   0.8653  0.2
SE19   1  0.496679  0.513955  0.740990   0.8646  0.2
SE20   1  0.722906  0.550855  0.763322   0.8635  0.2
SE21   1  0.736286  0.492345  0.444680   0.8581  0.2
SE22   1  1.064613  0.489921  0.269078   0.8566  0.2
SE23   1  0.324400 -0.343646 -0.159098   0.8534  0.2
SE24   1  0.303253 -0.292318  0.004505   0.8497  0.2
SE25   1  0.042306 -0.324976 -0.045695   0.8482  0.2
SE26   1 -0.024946 -0.299054 -0.188352   0.8455  0.2
SE27   1 -0.465439 -0.375428  0.409140   0.8438  0.2
SE28   1  0.676741  0.506032  0.786201   0.8408  0.2
SE29   1  0.792164  0.529028  0.340681   0.8407  0.2
SE30   1  0.742593  0.488293  0.916948   0.8237  0.2
SE31   1 -0.414211 -0.324466 -0.384171   0.8100  0.2
SE32   1  0.296907 -0.288632  0.477141   0.7994  0.2
SE33   1 -0.293325 -0.301674 -0.050568   0.7958  0.2
SE34   1  0.018761 -0.202777  0.215545   0.7932  0.2
SE35   1  0.367093 -0.304349  0.350530   0.7855  0.2
SE36   1  0.016570 -0.363434 -0.198189   0.7851  0.2
SE37   1 -0.492747 -0.194617 -0.139400   0.7850  0.2
SE38   1  0.337368  0.512935  0.367912   0.7783  0.2
SE39   1  0.067281  0.441022  0.256557   0.5000  0.2
SE40   1  0.505262  0.400422  0.288153   0.5000  0.2
SE41   1 -0.469633 -0.418953 -0.162314   0.5000  0.2
SE42   1  0.464843  0.531847  1.040201   0.5000  0.2
SE43   1 -0.329839  0.418202 -0.172138   0.5000  0.2
SE44   1 -0.488610  0.421132 -0.154374   0.5000  0.2
SE45   1  0.280878  0.372688 -0.465075   0.5000  0.2
SE46   1 -0.005237  0.395141 -0.330294   0.5000  0.2
SE47   1 -0.040479 -0.250100 -0.201930   0.5000  0.2
SE48   1 -0.375176 -0.307998  0.251225   0.5000  0.2
SE49   1  0.716299 -0.129727  0.463592   0.5000  0.2
SE50   1  0.480638 -0.078478  0.154723   0.5000  0.2
SE51   1  0.333207 -0.079201  0.173149   0.5000  0.2
SE52   1  0.719819 -0.490365  0.499260   0.5000  0.2
SE53   1  0.677240 -0.469761  0.207340   0.5000  0.2
SE54   1  0.346049 -0.312925  0.072076   0.5000  0.2
SE55   1  0.605489 -0.494862  0.722513   0.5000  0.2
SE56   1  0.612570 -0.459928  0.291985   0.5000  0.2
SE57   1 -0.097237 -0.544016 -0.253972   0.5000  0.2
SE58   1  0.769808 -0.504821  0.754898   0.5000  0.2
SE59   1  0.169490 -0.287351  0.834262   0.5000  0.2
SE60   1  0.869766 -0.450938  0.666575   0.5000  0.2
HKLF 3
END
